Optimal - objective value 134.00000000
      0 C                       134                       0
      2 x_0_1                    16                       0
      3 x_0_2                    31                       1
      4 x_0_3                    47                       0
      5 x_0_4                   123                       0
      6 x_0_5                   130                       0
      7 x_1_0                    25                       0
      8 x_1_1                    40                       0
      9 x_1_2                    49                       0
     10 x_1_3                    60                       0
     11 x_1_4                   107                       0
     12 x_1_5                   111                       0
     13 x_2_0                    32                       0
     14 x_2_1                    45                       0
     15 x_2_2                    85                       0
     16 x_2_3                    99                       0
     17 x_2_4                   100                       0
     18 x_2_5                   117                       0
     19 x_3_0                    16                       0
     20 x_3_1                    24                       0
     21 x_3_2                    64                       0
     22 x_3_3                    74                       0
     23 x_3_4                    79                       0
     24 x_3_5                    93                       0
     26 x_4_1                     4                       0
     27 x_4_2                    40                       0
     28 x_4_3                    57                       0
     29 x_4_4                    76                       0
     30 x_4_5                    93                       0
     32 x_5_1                    19                       0
     33 x_5_2                    21                       0
     34 x_5_3                    37                       0
     35 x_5_4                    47                       0
     36 x_5_5                   120                       0
     37 x_6_0                    19                       0
     38 x_6_1                    49                       0
     39 x_6_2                    64                       0
     40 x_6_3                    81                       0
     41 x_6_4                    85                       0
     42 x_6_5                   117                       0
     44 y_0_1_1                   1                       0
     47 y_0_1_4                   1                       0
     50 y_0_2_1                   1                       0
     53 y_0_2_4                   1                       0
     55 y_0_3_0                   1                       0
     56 y_0_3_1                   1                       0
     59 y_0_3_4                   1                       0
     62 y_0_4_1                   1                       0
     64 y_0_4_3                   1                       0
     65 y_0_4_4                   1                       0
     67 y_0_5_0                   1                       0
     68 y_0_5_1                   1                       0
     71 y_0_5_4                   1                       0
     73 y_0_6_0                   1                       0
     74 y_0_6_1                   1                       0
     77 y_0_6_4                   1                       0
     80 y_1_2_1                   1                       0
     82 y_1_2_3                   1                       0
     85 y_1_3_0                   1                       0
     87 y_1_3_2                   1                       0
     88 y_1_3_3                   1                       0
     91 y_1_4_0                   1                       0
     94 y_1_4_3                   1                       0
     95 y_1_4_4                   1                       0
     97 y_1_5_0                   1                       0
     98 y_1_5_1                   1                       0
    100 y_1_5_3                   1                       0
    101 y_1_5_4                   1                       0
    102 y_1_5_5                   1                     467
    103 y_1_6_0                   1                       0
    106 y_1_6_3                   1                       0
    109 y_2_3_0                   1                       0
    111 y_2_3_2                   1                       0
    113 y_2_3_4                   1                       0
    114 y_2_3_5                   1                       0
    115 y_2_4_0                   1                       0
    117 y_2_4_2                   1                       0
    118 y_2_4_3                   1                       0
    119 y_2_4_4                   1                       0
    120 y_2_4_5                   1                     467
    121 y_2_5_0                   1                       0
    122 y_2_5_1                   1                       0
    124 y_2_5_3                   1                       0
    125 y_2_5_4                   1                       0
    126 y_2_5_5                   1                       0
    127 y_2_6_0                   1                       0
    129 y_2_6_2                   1                       0
    131 y_2_6_4                   1                       0
    134 y_3_4_1                   1                       0
    136 y_3_4_3                   1                       0
    137 y_3_4_4                   1                       0
    139 y_3_5_0                   1                       0
    140 y_3_5_1                   1                       0
    142 y_3_5_3                   1                       0
    143 y_3_5_4                   1                       0
    144 y_3_5_5                   1                       0
    145 y_3_6_0                   1                       0
    148 y_3_6_3                   1                       0
    149 y_3_6_4                   1                       0
    151 y_4_5_0                   1                       0
    152 y_4_5_1                   1                       0
    156 y_4_5_5                   1                       0
    157 y_4_6_0                   1                       0
    165 y_5_6_2                   1                       0
